benchmark/results/graph__10-1000-0.10-04_17/graph__10-1000-0.10-04_17_QuintonOs_Benders_aux.lp
\ This file has been generated by DOcplex
\ ENCODING=ISO-8859-1
\Problem name: Quinton Bounded Benders_auxiliary_sub

Minimize
 obj: 0.001095668843 pi_nr_a0 + 0.001656442717 pi_nr_a1
      + 0.001404823892 pi_nr_a2 + 0.002598398057 pi_nr_a3
      + 0.000991533425 pi_nr_a4 + 0.001531414395 pi_nr_a5
      + 0.001587253147 pi_nr_a6 + 0.002284958667 pi_nr_a7
      + 0.001723410736 pi_nr_a8 + 0.001129116232 pi_nr_a9 + pi_p_a4_a3
      + pi_p_a2_a7 + pi_p_a2_a2 + pi_p_a9_a3 + pi_p_a7_a0 + pi_p_a5_a6
      + 2512.322143554688 pi_d_a0_a1_proc_2
      + 1277.835144042969 pi_d_a0_a1_proc_3
      + 2398.824645996094 pi_d_a0_a1_proc_0
      + 1421.070983886719 pi_d_a0_a1_proc_1
      + 2485.334075927734 pi_d_a1_a0_proc_2
      + 1250.847076416016 pi_d_a1_a0_proc_3
      + 2371.836578369141 pi_d_a1_a0_proc_0
      + 1394.082916259766 pi_d_a1_a0_proc_1
      + 1584.467895507812 pi_d_a0_a2_proc_2 + 974.716613769531 pi_d_a0_a2_proc_3
      + 2509.122863769531 pi_d_a0_a2_proc_0
      + 2528.641052246094 pi_d_a0_a2_proc_1
      + 1564.032073974609 pi_d_a2_a0_proc_2 + 954.280792236328 pi_d_a2_a0_proc_3
      + 2488.687042236328 pi_d_a2_a0_proc_0
      + 2508.205230712891 pi_d_a2_a0_proc_1
      + 1376.505462646484 pi_d_a0_a3_proc_2
      + 1277.838714599609 pi_d_a0_a3_proc_3
      + 2423.725433349609 pi_d_a0_a3_proc_0
      + 1349.510253906250 pi_d_a3_a0_proc_2
      + 1250.843505859375 pi_d_a3_a0_proc_3
      + 2396.730224609375 pi_d_a3_a0_proc_0
      + 2528.335845947266 pi_d_a0_a4_proc_2
      + 1271.871673583984 pi_d_a0_a4_proc_0
      + 2501.364013671875 pi_d_a4_a0_proc_2
      + 1244.899841308594 pi_d_a4_a0_proc_0
      + 1277.802429199219 pi_d_a0_a5_proc_3
      + 1399.752685546875 pi_d_a0_a5_proc_0
      + 2400.405639648438 pi_d_a0_a5_proc_1
      + 1250.879791259766 pi_d_a5_a0_proc_3
      + 1372.830047607422 pi_d_a5_a0_proc_0
      + 2373.483001708984 pi_d_a5_a0_proc_1
      + 1273.037994384766 pi_d_a0_a6_proc_1
      + 1246.038818359375 pi_d_a6_a0_proc_1
      + 2531.935180664062 pi_d_a0_a7_proc_2
      + 2523.712951660156 pi_d_a0_a7_proc_0
      + 1276.393127441406 pi_d_a0_a7_proc_1
      + 2505.064788818359 pi_d_a7_a0_proc_2
      + 2496.842559814453 pi_d_a7_a0_proc_0
      + 1249.522735595703 pi_d_a7_a0_proc_1
      + 1277.490173339844 pi_d_a0_a8_proc_3
      + 2523.273132324219 pi_d_a0_a8_proc_0
      + 1277.182800292969 pi_d_a0_a8_proc_1
      + 1250.577301025391 pi_d_a8_a0_proc_3
      + 2496.360260009766 pi_d_a8_a0_proc_0
      + 1250.269927978516 pi_d_a8_a0_proc_1
      + 1429.438903808594 pi_d_a0_a9_proc_2
      + 1190.763732910156 pi_d_a0_a9_proc_3
      + 2456.948577880859 pi_d_a0_a9_proc_0
      + 2529.181243896484 pi_d_a0_a9_proc_1
      + 1404.311065673828 pi_d_a9_a0_proc_2
      + 1165.635894775391 pi_d_a9_a0_proc_3
      + 2431.820739746094 pi_d_a9_a0_proc_0
      + 2504.053405761719 pi_d_a9_a0_proc_1
      + 1567.967041015625 pi_d_a1_a2_proc_2
      + 2232.046508789062 pi_d_a1_a2_proc_3
      + 2388.729919433594 pi_d_a1_a2_proc_0
      + 1420.889038085938 pi_d_a1_a2_proc_1
      + 1541.189178466797 pi_d_a2_a1_proc_2
      + 2205.268646240234 pi_d_a2_a1_proc_3
      + 2361.952056884766 pi_d_a2_a1_proc_0
      + 1394.111175537109 pi_d_a2_a1_proc_1
      + 1356.021087646484 pi_d_a1_a3_proc_2
      + 2531.185089111328 pi_d_a1_a3_proc_3
      + 2299.348968505859 pi_d_a1_a3_proc_0
      + 1330.650878906250 pi_d_a3_a1_proc_2
      + 2505.814880371094 pi_d_a3_a1_proc_3
      + 2273.978759765625 pi_d_a3_a1_proc_0
      + 2507.255767822266 pi_d_a1_a4_proc_2
      + 1146.899505615234 pi_d_a1_a4_proc_0
      + 2483.100341796875 pi_d_a4_a1_proc_2
      + 1122.744079589844 pi_d_a4_a1_proc_0
      + 2531.955932617188 pi_d_a1_a5_proc_3
      + 1276.183349609375 pi_d_a1_a5_proc_0
      + 1289.477233886719 pi_d_a1_a5_proc_1
      + 2505.044036865234 pi_d_a5_a1_proc_3
      + 1249.271453857422 pi_d_a5_a1_proc_0
      + 1262.565338134766 pi_d_a5_a1_proc_1 + 150.222076416016 pi_d_a1_a6_proc_1
      + 147.008666992188 pi_d_a6_a1_proc_1 + 2499.582763671875 pi_d_a1_a7_proc_2
      + 2387.468444824219 pi_d_a1_a7_proc_0 + 152.789550781250 pi_d_a1_a7_proc_1
      + 2498.073455810547 pi_d_a7_a1_proc_2
      + 2385.959136962891 pi_d_a7_a1_proc_0 + 151.280242919922 pi_d_a7_a1_proc_1
      + 2519.377685546875 pi_d_a1_a8_proc_3
      + 2387.437805175781 pi_d_a1_a8_proc_0 + 153.988403320312 pi_d_a1_a8_proc_1
      + 2517.007537841797 pi_d_a8_a1_proc_3
      + 2385.067657470703 pi_d_a8_a1_proc_0 + 151.618255615234 pi_d_a8_a1_proc_1
      + 1410.130187988281 pi_d_a1_a9_proc_2
      + 2445.285766601562 pi_d_a1_a9_proc_3
      + 2333.747772216797 pi_d_a1_a9_proc_0
      + 1418.621368408203 pi_d_a1_a9_proc_1
      + 1384.276031494141 pi_d_a9_a1_proc_2
      + 2419.431610107422 pi_d_a9_a1_proc_3
      + 2307.893615722656 pi_d_a9_a1_proc_0
      + 1392.767211914062 pi_d_a9_a1_proc_1 + 416.568328857422 pi_d_a2_a3_proc_2
      + 2216.468048095703 pi_d_a2_a3_proc_3
      + 2398.048675537109 pi_d_a2_a3_proc_0 + 420.947387695312 pi_d_a3_a2_proc_2
      + 2220.847106933594 pi_d_a3_a2_proc_3
      + 2402.427734375000 pi_d_a3_a2_proc_0
      + 1557.357330322266 pi_d_a2_a4_proc_2
      + 1235.153533935547 pi_d_a2_a4_proc_0
      + 1583.842529296875 pi_d_a4_a2_proc_2
      + 1261.638732910156 pi_d_a4_a2_proc_0
      + 2232.109893798828 pi_d_a2_a5_proc_3
      + 1389.754058837891 pi_d_a2_a5_proc_0
      + 2400.319793701172 pi_d_a2_a5_proc_1
      + 2205.205261230469 pi_d_a5_a2_proc_3
      + 1362.849426269531 pi_d_a5_a2_proc_0
      + 2373.415161132812 pi_d_a5_a2_proc_1
      + 1249.335357666016 pi_d_a2_a6_proc_1
      + 1269.587768554688 pi_d_a6_a2_proc_1
      + 1587.748382568359 pi_d_a2_a7_proc_2
      + 2513.786529541016 pi_d_a2_a7_proc_0
      + 1276.379486083984 pi_d_a2_a7_proc_1
      + 1560.751586914062 pi_d_a7_a2_proc_2
      + 2486.789733886719 pi_d_a7_a2_proc_0
      + 1249.382690429688 pi_d_a7_a2_proc_1
      + 2231.845428466797 pi_d_a2_a8_proc_3
      + 2513.322296142578 pi_d_a2_a8_proc_0
      + 1277.144744873047 pi_d_a2_a8_proc_1
      + 2204.854980468750 pi_d_a8_a2_proc_3
      + 2486.331848144531 pi_d_a8_a2_proc_0
      + 1250.154296875000 pi_d_a8_a2_proc_1 + 475.435119628906 pi_d_a2_a9_proc_2
      + 2135.326416015625 pi_d_a2_a9_proc_3
      + 2437.205169677734 pi_d_a2_a9_proc_0
      + 2519.350616455078 pi_d_a2_a9_proc_1 + 469.814849853516 pi_d_a9_a2_proc_2
      + 2129.706146240234 pi_d_a9_a2_proc_3
      + 2431.584899902344 pi_d_a9_a2_proc_0
      + 2513.730346679688 pi_d_a9_a2_proc_1
      + 1371.670501708984 pi_d_a3_a4_proc_2
      + 1172.031707763672 pi_d_a3_a4_proc_0
      + 1347.045104980469 pi_d_a4_a3_proc_2
      + 1147.406311035156 pi_d_a4_a3_proc_0
      + 2531.743530273438 pi_d_a3_a5_proc_3
      + 1300.868164062500 pi_d_a3_a5_proc_0
      + 2505.256439208984 pi_d_a5_a3_proc_3
      + 1274.381072998047 pi_d_a5_a3_proc_0
      + 1376.507019042969 pi_d_a3_a7_proc_2
      + 2425.110168457031 pi_d_a3_a7_proc_0
      + 1349.508697509766 pi_d_a7_a3_proc_2
      + 2398.111846923828 pi_d_a7_a3_proc_0
      + 2531.690063476562 pi_d_a3_a8_proc_3
      + 2424.647399902344 pi_d_a3_a8_proc_0
      + 2504.695159912109 pi_d_a8_a3_proc_3
      + 2397.652496337891 pi_d_a8_a3_proc_0 + 262.411987304688 pi_d_a3_a9_proc_2
      + 2433.387817382812 pi_d_a3_a9_proc_3
      + 2346.747039794922 pi_d_a3_a9_proc_0 + 260.353729248047 pi_d_a9_a3_proc_2
      + 2431.329559326172 pi_d_a9_a3_proc_3
      + 2344.688781738281 pi_d_a9_a3_proc_0 + 137.672760009766 pi_d_a4_a5_proc_0
      + 133.892333984375 pi_d_a5_a4_proc_0 + 2528.349517822266 pi_d_a4_a7_proc_2
      + 1273.268524169922 pi_d_a4_a7_proc_0
      + 2501.350341796875 pi_d_a7_a4_proc_2
      + 1246.269348144531 pi_d_a7_a4_proc_0
      + 1272.794769287109 pi_d_a4_a8_proc_0
      + 1245.820983886719 pi_d_a8_a4_proc_0
      + 1425.908111572266 pi_d_a4_a9_proc_2
      + 1206.559020996094 pi_d_a4_a9_proc_0
      + 1400.541748046875 pi_d_a9_a4_proc_2
      + 1181.192657470703 pi_d_a9_a4_proc_0
      + 1140.123931884766 pi_d_a5_a6_proc_1
      + 1115.841552734375 pi_d_a6_a5_proc_1
      + 1399.728179931641 pi_d_a5_a7_proc_0
      + 1143.455902099609 pi_d_a5_a7_proc_1
      + 1375.620910644531 pi_d_a7_a5_proc_0
      + 1119.348632812500 pi_d_a7_a5_proc_1
      + 2530.189239501953 pi_d_a5_a8_proc_3
      + 1399.210113525391 pi_d_a5_a8_proc_0
      + 1144.167327880859 pi_d_a5_a8_proc_1
      + 2506.195983886719 pi_d_a8_a5_proc_3
      + 1375.216857910156 pi_d_a8_a5_proc_0
      + 1120.174072265625 pi_d_a8_a5_proc_1
      + 2445.592163085938 pi_d_a5_a9_proc_3
      + 1335.014923095703 pi_d_a5_a9_proc_0
      + 2398.295135498047 pi_d_a5_a9_proc_1
      + 2419.125213623047 pi_d_a9_a5_proc_3
      + 1308.547973632812 pi_d_a9_a5_proc_0
      + 2371.828186035156 pi_d_a9_a5_proc_1 + 3.534393310547 pi_d_a6_a7_proc_1
      + 4.458312988281 pi_d_a7_a6_proc_1 + 4.311370849609 pi_d_a6_a8_proc_1
      + 5.218200683594 pi_d_a8_a6_proc_1 + 1268.603149414062 pi_d_a6_a9_proc_1
      + 1246.708343505859 pi_d_a9_a6_proc_1
      + 2511.723663330078 pi_d_a7_a8_proc_0 + 8.708099365234 pi_d_a7_a8_proc_1
      + 2510.676086425781 pi_d_a8_a7_proc_0 + 7.660522460938 pi_d_a8_a7_proc_1
      + 1430.357482910156 pi_d_a7_a9_proc_2
      + 2459.250335693359 pi_d_a7_a9_proc_0
      + 1274.557769775391 pi_d_a7_a9_proc_1
      + 1403.392486572266 pi_d_a9_a7_proc_2
      + 2432.285339355469 pi_d_a9_a7_proc_0
      + 1247.592773437500 pi_d_a9_a7_proc_1
      + 2445.542358398438 pi_d_a8_a9_proc_3
      + 2458.797821044922 pi_d_a8_a9_proc_0
      + 1275.334747314453 pi_d_a8_a9_proc_1
      + 2418.560272216797 pi_d_a9_a8_proc_3
      + 2431.815734863281 pi_d_a9_a8_proc_0
      + 1248.352661132812 pi_d_a9_a8_proc_1 + 0.003814697266 pi_y2_a0_proc_0
      + 0.996154785156 pi_y2_a0_proc_3 + 0.101959228516 pi_y2_a1_proc_0
      + 0.882385253906 pi_y2_a1_proc_1 + 0.015625000000 pi_y2_a1_proc_2
      + 0.011749267578 pi_y2_a2_proc_0 + 0.000061035156 pi_y2_a2_proc_1
      + 0.750000000000 pi_y2_a2_proc_2 + 0.238159179688 pi_y2_a2_proc_3
      + 0.082183837891 pi_y2_a3_proc_0 + 0.917785644531 pi_y2_a3_proc_2
      + 0.997070312500 pi_y2_a4_proc_0 + 0.002899169922 pi_y2_a4_proc_2
      + 0.895477294922 pi_y2_a5_proc_0 + 0.104492187500 pi_y2_a5_proc_1
      + 0.999969482422 pi_y2_a6_proc_1 + 0.002716064453 pi_y2_a7_proc_0
      + 0.997253417969 pi_y2_a7_proc_1 + 0.003082275391 pi_y2_a8_proc_0
      + 0.996643066406 pi_y2_a8_proc_1 + 0.000244140625 pi_y2_a8_proc_3
      + 0.055053710938 pi_y2_a9_proc_0 + 0.001495361328 pi_y2_a9_proc_1
      + 0.875000000000 pi_y2_a9_proc_2 + 0.068420410156 pi_y2_a9_proc_3
Subject To
 c1: 0.001096491228 pi_nr_a0 + 0.001724137931 pi_nr_a1 + 0.001240694789 pi_nr_a2
     + 0.002754820937 pi_nr_a3 + 0.000992063492 pi_nr_a4
     + 0.001607717042 pi_nr_a5 + 0.001587301587 pi_nr_a6
     + 0.002288329519 pi_nr_a7 + 0.001724137931 pi_nr_a8
     + 0.001008064516 pi_nr_a9 + pi_p_a4_a3 + pi_p_a2_a7 + pi_p_a2_a2
     + pi_p_a9_a3 + pi_p_a7_a0 + pi_p_a5_a6 + 2532 pi_d_a0_a1_proc_2
     + 1273 pi_d_a0_a1_proc_3 + 2532 pi_d_a0_a1_proc_0 + 1273 pi_d_a0_a1_proc_1
     + 2505 pi_d_a1_a0_proc_2 + 1246 pi_d_a1_a0_proc_3 + 2505 pi_d_a1_a0_proc_0
     + 1246 pi_d_a1_a0_proc_1 + 1273 pi_d_a0_a2_proc_2 + 1273 pi_d_a0_a2_proc_3
     + 2532 pi_d_a0_a2_proc_0 + 2532 pi_d_a0_a2_proc_1 + 1246 pi_d_a2_a0_proc_2
     + 1246 pi_d_a2_a0_proc_3 + 2505 pi_d_a2_a0_proc_0 + 2505 pi_d_a2_a0_proc_1
     + 1273 pi_d_a0_a3_proc_2 + 1273 pi_d_a0_a3_proc_3 + 2532 pi_d_a0_a3_proc_0
     + 1246 pi_d_a3_a0_proc_2 + 1246 pi_d_a3_a0_proc_3 + 2505 pi_d_a3_a0_proc_0
     + 2532 pi_d_a0_a4_proc_2 + 1273 pi_d_a0_a4_proc_0 + 2505 pi_d_a4_a0_proc_2
     + 1246 pi_d_a4_a0_proc_0 + 1273 pi_d_a0_a5_proc_3 + 1273 pi_d_a0_a5_proc_0
     + 2532 pi_d_a0_a5_proc_1 + 1246 pi_d_a5_a0_proc_3 + 1246 pi_d_a5_a0_proc_0
     + 2505 pi_d_a5_a0_proc_1 + 1273 pi_d_a0_a6_proc_1 + 1246 pi_d_a6_a0_proc_1
     + 2532 pi_d_a0_a7_proc_2 + 2532 pi_d_a0_a7_proc_0 + 1273 pi_d_a0_a7_proc_1
     + 2505 pi_d_a7_a0_proc_2 + 2505 pi_d_a7_a0_proc_0 + 1246 pi_d_a7_a0_proc_1
     + 1273 pi_d_a0_a8_proc_3 + 2532 pi_d_a0_a8_proc_0 + 1273 pi_d_a0_a8_proc_1
     + 1246 pi_d_a8_a0_proc_3 + 2505 pi_d_a8_a0_proc_0 + 1246 pi_d_a8_a0_proc_1
     + 1273 pi_d_a0_a9_proc_2 + 1273 pi_d_a0_a9_proc_3 + 2532 pi_d_a0_a9_proc_0
     + 2532 pi_d_a0_a9_proc_1 + 1246 pi_d_a9_a0_proc_2 + 1246 pi_d_a9_a0_proc_3
     + 2505 pi_d_a9_a0_proc_0 + 2505 pi_d_a9_a0_proc_1 + 1273 pi_d_a1_a2_proc_2
     + 2532 pi_d_a1_a2_proc_3 + 2532 pi_d_a1_a2_proc_0 + 1273 pi_d_a1_a2_proc_1
     + 1246 pi_d_a2_a1_proc_2 + 2505 pi_d_a2_a1_proc_3 + 2505 pi_d_a2_a1_proc_0
     + 1246 pi_d_a2_a1_proc_1 + 1273 pi_d_a1_a3_proc_2 + 2532 pi_d_a1_a3_proc_3
     + 2532 pi_d_a1_a3_proc_0 + 1246 pi_d_a3_a1_proc_2 + 2505 pi_d_a3_a1_proc_3
     + 2505 pi_d_a3_a1_proc_0 + 2532 pi_d_a1_a4_proc_2 + 1273 pi_d_a1_a4_proc_0
     + 2505 pi_d_a4_a1_proc_2 + 1246 pi_d_a4_a1_proc_0 + 2532 pi_d_a1_a5_proc_3
     + 1273 pi_d_a1_a5_proc_0 + 1273 pi_d_a1_a5_proc_1 + 2505 pi_d_a5_a1_proc_3
     + 1246 pi_d_a5_a1_proc_0 + 1246 pi_d_a5_a1_proc_1 + pi_d_a1_a6_proc_1
     + 2518 pi_d_a1_a7_proc_2 + 2518 pi_d_a1_a7_proc_0 + 2519 pi_d_a7_a1_proc_2
     + 2519 pi_d_a7_a1_proc_0 + pi_d_a7_a1_proc_1 + 2518 pi_d_a1_a8_proc_3
     + 2518 pi_d_a1_a8_proc_0 + 2519 pi_d_a8_a1_proc_3 + 2519 pi_d_a8_a1_proc_0
     + pi_d_a8_a1_proc_1 + 1273 pi_d_a1_a9_proc_2 + 2532 pi_d_a1_a9_proc_3
     + 2532 pi_d_a1_a9_proc_0 + 1273 pi_d_a1_a9_proc_1 + 1246 pi_d_a9_a1_proc_2
     + 2505 pi_d_a9_a1_proc_3 + 2505 pi_d_a9_a1_proc_0 + 1246 pi_d_a9_a1_proc_1
     + 2 pi_d_a2_a3_proc_2 + 2520 pi_d_a2_a3_proc_3 + 2520 pi_d_a2_a3_proc_0
     - pi_d_a3_a2_proc_2 + 2517 pi_d_a3_a2_proc_3 + 2517 pi_d_a3_a2_proc_0
     + 1246 pi_d_a2_a4_proc_2 + 1246 pi_d_a2_a4_proc_0 + 1273 pi_d_a4_a2_proc_2
     + 1273 pi_d_a4_a2_proc_0 + 2532 pi_d_a2_a5_proc_3 + 1273 pi_d_a2_a5_proc_0
     + 2532 pi_d_a2_a5_proc_1 + 2505 pi_d_a5_a2_proc_3 + 1246 pi_d_a5_a2_proc_0
     + 2505 pi_d_a5_a2_proc_1 + 1246 pi_d_a2_a6_proc_1 + 1273 pi_d_a6_a2_proc_1
     + 1273 pi_d_a2_a7_proc_2 + 2532 pi_d_a2_a7_proc_0 + 1273 pi_d_a2_a7_proc_1
     + 1246 pi_d_a7_a2_proc_2 + 2505 pi_d_a7_a2_proc_0 + 1246 pi_d_a7_a2_proc_1
     + 2532 pi_d_a2_a8_proc_3 + 2532 pi_d_a2_a8_proc_0 + 1273 pi_d_a2_a8_proc_1
     + 2505 pi_d_a8_a2_proc_3 + 2505 pi_d_a8_a2_proc_0 + 1246 pi_d_a8_a2_proc_1
     + pi_d_a2_a9_proc_2 + 2519 pi_d_a2_a9_proc_3 + 2519 pi_d_a2_a9_proc_0
     + 2519 pi_d_a2_a9_proc_1 + 2518 pi_d_a9_a2_proc_3 + 2518 pi_d_a9_a2_proc_0
     + 2518 pi_d_a9_a2_proc_1 + 1273 pi_d_a3_a4_proc_2 + 1273 pi_d_a3_a4_proc_0
     + 1246 pi_d_a4_a3_proc_2 + 1246 pi_d_a4_a3_proc_0 + 2532 pi_d_a3_a5_proc_3
     + 1273 pi_d_a3_a5_proc_0 + 2505 pi_d_a5_a3_proc_3 + 1246 pi_d_a5_a3_proc_0
     + 1273 pi_d_a3_a7_proc_2 + 2532 pi_d_a3_a7_proc_0 + 1246 pi_d_a7_a3_proc_2
     + 2505 pi_d_a7_a3_proc_0 + 2532 pi_d_a3_a8_proc_3 + 2532 pi_d_a3_a8_proc_0
     + 2505 pi_d_a8_a3_proc_3 + 2505 pi_d_a8_a3_proc_0 + 2518 pi_d_a3_a9_proc_3
     + 2518 pi_d_a3_a9_proc_0 + pi_d_a9_a3_proc_2 + 2519 pi_d_a9_a3_proc_3
     + 2519 pi_d_a9_a3_proc_0 + pi_d_a4_a5_proc_0 + 2532 pi_d_a4_a7_proc_2
     + 1273 pi_d_a4_a7_proc_0 + 2505 pi_d_a7_a4_proc_2 + 1246 pi_d_a7_a4_proc_0
     + 1273 pi_d_a4_a8_proc_0 + 1246 pi_d_a8_a4_proc_0 + 1273 pi_d_a4_a9_proc_2
     + 1273 pi_d_a4_a9_proc_0 + 1246 pi_d_a9_a4_proc_2 + 1246 pi_d_a9_a4_proc_0
     + 1273 pi_d_a5_a6_proc_1 + 1246 pi_d_a6_a5_proc_1 + 1273 pi_d_a5_a7_proc_0
     + 1273 pi_d_a5_a7_proc_1 + 1246 pi_d_a7_a5_proc_0 + 1246 pi_d_a7_a5_proc_1
     + 2532 pi_d_a5_a8_proc_3 + 1273 pi_d_a5_a8_proc_0 + 1273 pi_d_a5_a8_proc_1
     + 2505 pi_d_a8_a5_proc_3 + 1246 pi_d_a8_a5_proc_0 + 1246 pi_d_a8_a5_proc_1
     + 2532 pi_d_a5_a9_proc_3 + 1273 pi_d_a5_a9_proc_0 + 2532 pi_d_a5_a9_proc_1
     + 2505 pi_d_a9_a5_proc_3 + 1246 pi_d_a9_a5_proc_0 + 2505 pi_d_a9_a5_proc_1
     + pi_d_a7_a6_proc_1 + pi_d_a8_a6_proc_1 + 1273 pi_d_a6_a9_proc_1
     + 1246 pi_d_a9_a6_proc_1 + 2519 pi_d_a7_a8_proc_0 + pi_d_a7_a8_proc_1
     + 2518 pi_d_a8_a7_proc_0 + 1273 pi_d_a7_a9_proc_2 + 2532 pi_d_a7_a9_proc_0
     + 1273 pi_d_a7_a9_proc_1 + 1246 pi_d_a9_a7_proc_2 + 2505 pi_d_a9_a7_proc_0
     + 1246 pi_d_a9_a7_proc_1 + 2532 pi_d_a8_a9_proc_3 + 2532 pi_d_a8_a9_proc_0
     + 1273 pi_d_a8_a9_proc_1 + 2505 pi_d_a9_a8_proc_3 + 2505 pi_d_a9_a8_proc_0
     + 1246 pi_d_a9_a8_proc_1 + pi_y2_a0_proc_3 + pi_y2_a1_proc_1
     + pi_y2_a2_proc_2 + pi_y2_a3_proc_2 + pi_y2_a4_proc_0 + pi_y2_a5_proc_0
     + pi_y2_a6_proc_1 + pi_y2_a7_proc_1 + pi_y2_a8_proc_1 + pi_y2_a9_proc_2 = 
     0.000257731959
 c2: pi_nr_a0 + pi_nr_a1 + pi_nr_a2 + pi_nr_a3 + pi_nr_a4 + pi_nr_a5 + pi_nr_a6
     + pi_nr_a7 + pi_nr_a8 + pi_nr_a9 - pi_y1_a0 - pi_y1_a1 - pi_y1_a2
     - pi_y1_a3 - pi_y1_a4 - pi_y1_a5 - pi_y1_a6 - pi_y1_a7 - pi_y1_a8
     - pi_y1_a9 >= 1
 c3: pi_p_a0_a1 - pi_p_a3_a0 - pi_p_a7_a0 + pi_d_a0_a1_proc_2
     + pi_d_a0_a1_proc_3 + pi_d_a0_a1_proc_0 + pi_d_a0_a1_proc_1
     - pi_d_a1_a0_proc_2 - pi_d_a1_a0_proc_3 - pi_d_a1_a0_proc_0
     - pi_d_a1_a0_proc_1 + pi_d_a0_a2_proc_2 + pi_d_a0_a2_proc_3
     + pi_d_a0_a2_proc_0 + pi_d_a0_a2_proc_1 - pi_d_a2_a0_proc_2
     - pi_d_a2_a0_proc_3 - pi_d_a2_a0_proc_0 - pi_d_a2_a0_proc_1
     + pi_d_a0_a3_proc_2 + pi_d_a0_a3_proc_3 + pi_d_a0_a3_proc_0
     - pi_d_a3_a0_proc_2 - pi_d_a3_a0_proc_3 - pi_d_a3_a0_proc_0
     + pi_d_a0_a4_proc_2 + pi_d_a0_a4_proc_0 - pi_d_a4_a0_proc_2
     - pi_d_a4_a0_proc_0 + pi_d_a0_a5_proc_3 + pi_d_a0_a5_proc_0
     + pi_d_a0_a5_proc_1 - pi_d_a5_a0_proc_3 - pi_d_a5_a0_proc_0
     - pi_d_a5_a0_proc_1 + pi_d_a0_a6_proc_1 - pi_d_a6_a0_proc_1
     + pi_d_a0_a7_proc_2 + pi_d_a0_a7_proc_0 + pi_d_a0_a7_proc_1
     - pi_d_a7_a0_proc_2 - pi_d_a7_a0_proc_0 - pi_d_a7_a0_proc_1
     + pi_d_a0_a8_proc_3 + pi_d_a0_a8_proc_0 + pi_d_a0_a8_proc_1
     - pi_d_a8_a0_proc_3 - pi_d_a8_a0_proc_0 - pi_d_a8_a0_proc_1
     + pi_d_a0_a9_proc_2 + pi_d_a0_a9_proc_3 + pi_d_a0_a9_proc_0
     + pi_d_a0_a9_proc_1 - pi_d_a9_a0_proc_2 - pi_d_a9_a0_proc_3
     - pi_d_a9_a0_proc_0 - pi_d_a9_a0_proc_1 >= 0
 c4: 1124 pi_p_a0_a1 + 1124 pi_d_a0_a1_proc_0 + 1124 pi_d_a0_a2_proc_0
     + 1124 pi_d_a0_a3_proc_0 + 1124 pi_d_a0_a4_proc_0 + 1124 pi_d_a0_a5_proc_0
     + 1124 pi_d_a0_a7_proc_0 + 1124 pi_d_a0_a8_proc_0 + 1124 pi_d_a0_a9_proc_0
     + pi_y1_a0 + pi_y2_a0_proc_0 >= 0
 c5: 1259 pi_p_a0_a1 + 1259 pi_d_a0_a1_proc_1 + 1259 pi_d_a0_a2_proc_1
     + 1259 pi_d_a0_a5_proc_1 + 1259 pi_d_a0_a6_proc_1 + 1259 pi_d_a0_a7_proc_1
     + 1259 pi_d_a0_a8_proc_1 + 1259 pi_d_a0_a9_proc_1 + pi_y1_a0
     + pi_y2_a0_proc_1 >= 0
 c6: 979 pi_p_a0_a1 + 979 pi_d_a0_a1_proc_2 + 979 pi_d_a0_a2_proc_2
     + 979 pi_d_a0_a3_proc_2 + 979 pi_d_a0_a4_proc_2 + 979 pi_d_a0_a7_proc_2
     + 979 pi_d_a0_a9_proc_2 + pi_y1_a0 + pi_y2_a0_proc_2 >= 0
 c7: 912 pi_p_a0_a1 + 912 pi_d_a0_a1_proc_3 + 912 pi_d_a0_a2_proc_3
     + 912 pi_d_a0_a3_proc_3 + 912 pi_d_a0_a5_proc_3 + 912 pi_d_a0_a8_proc_3
     + 912 pi_d_a0_a9_proc_3 + pi_y1_a0 + pi_y2_a0_proc_3 >= 0
 c8: - pi_p_a0_a1 + pi_p_a1_a2 + pi_p_a1_a8 - pi_d_a0_a1_proc_2
     - pi_d_a0_a1_proc_3 - pi_d_a0_a1_proc_0 - pi_d_a0_a1_proc_1
     + pi_d_a1_a0_proc_2 + pi_d_a1_a0_proc_3 + pi_d_a1_a0_proc_0
     + pi_d_a1_a0_proc_1 + pi_d_a1_a2_proc_2 + pi_d_a1_a2_proc_3
     + pi_d_a1_a2_proc_0 + pi_d_a1_a2_proc_1 - pi_d_a2_a1_proc_2
     - pi_d_a2_a1_proc_3 - pi_d_a2_a1_proc_0 - pi_d_a2_a1_proc_1
     + pi_d_a1_a3_proc_2 + pi_d_a1_a3_proc_3 + pi_d_a1_a3_proc_0
     - pi_d_a3_a1_proc_2 - pi_d_a3_a1_proc_3 - pi_d_a3_a1_proc_0
     + pi_d_a1_a4_proc_2 + pi_d_a1_a4_proc_0 - pi_d_a4_a1_proc_2
     - pi_d_a4_a1_proc_0 + pi_d_a1_a5_proc_3 + pi_d_a1_a5_proc_0
     + pi_d_a1_a5_proc_1 - pi_d_a5_a1_proc_3 - pi_d_a5_a1_proc_0
     - pi_d_a5_a1_proc_1 + pi_d_a1_a6_proc_1 - pi_d_a6_a1_proc_1
     + pi_d_a1_a7_proc_2 + pi_d_a1_a7_proc_0 + pi_d_a1_a7_proc_1
     - pi_d_a7_a1_proc_2 - pi_d_a7_a1_proc_0 - pi_d_a7_a1_proc_1
     + pi_d_a1_a8_proc_3 + pi_d_a1_a8_proc_0 + pi_d_a1_a8_proc_1
     - pi_d_a8_a1_proc_3 - pi_d_a8_a1_proc_0 - pi_d_a8_a1_proc_1
     + pi_d_a1_a9_proc_2 + pi_d_a1_a9_proc_3 + pi_d_a1_a9_proc_0
     + pi_d_a1_a9_proc_1 - pi_d_a9_a1_proc_2 - pi_d_a9_a1_proc_3
     - pi_d_a9_a1_proc_0 - pi_d_a9_a1_proc_1 >= 0
 c9: 910 pi_p_a1_a2 + 910 pi_p_a1_a8 + 910 pi_d_a1_a0_proc_0
     + 910 pi_d_a1_a2_proc_0 + 910 pi_d_a1_a3_proc_0 + 910 pi_d_a1_a4_proc_0
     + 910 pi_d_a1_a5_proc_0 + 910 pi_d_a1_a7_proc_0 + 910 pi_d_a1_a8_proc_0
     + 910 pi_d_a1_a9_proc_0 + pi_y1_a1 + pi_y2_a1_proc_0 >= 0
 c10: 580 pi_p_a1_a2 + 580 pi_p_a1_a8 + 580 pi_d_a1_a0_proc_1
      + 580 pi_d_a1_a2_proc_1 + 580 pi_d_a1_a5_proc_1 + 580 pi_d_a1_a6_proc_1
      + 580 pi_d_a1_a7_proc_1 + 580 pi_d_a1_a8_proc_1 + 580 pi_d_a1_a9_proc_1
      + pi_y1_a1 + pi_y2_a1_proc_1 >= 0
 c11: 678 pi_p_a1_a2 + 678 pi_p_a1_a8 + 678 pi_d_a1_a0_proc_2
      + 678 pi_d_a1_a2_proc_2 + 678 pi_d_a1_a3_proc_2 + 678 pi_d_a1_a4_proc_2
      + 678 pi_d_a1_a7_proc_2 + 678 pi_d_a1_a9_proc_2 + pi_y1_a1
      + pi_y2_a1_proc_2 >= 0
 c12: 977 pi_p_a1_a2 + 977 pi_p_a1_a8 + 977 pi_d_a1_a0_proc_3
      + 977 pi_d_a1_a2_proc_3 + 977 pi_d_a1_a3_proc_3 + 977 pi_d_a1_a5_proc_3
      + 977 pi_d_a1_a8_proc_3 + 977 pi_d_a1_a9_proc_3 + pi_y1_a1
      + pi_y2_a1_proc_3 >= 0
 c13: - pi_p_a1_a2 + pi_p_a2_a7 - pi_p_a9_a2 - pi_d_a0_a2_proc_2
      - pi_d_a0_a2_proc_3 - pi_d_a0_a2_proc_0 - pi_d_a0_a2_proc_1
      + pi_d_a2_a0_proc_2 + pi_d_a2_a0_proc_3 + pi_d_a2_a0_proc_0
      + pi_d_a2_a0_proc_1 - pi_d_a1_a2_proc_2 - pi_d_a1_a2_proc_3
      - pi_d_a1_a2_proc_0 - pi_d_a1_a2_proc_1 + pi_d_a2_a1_proc_2
      + pi_d_a2_a1_proc_3 + pi_d_a2_a1_proc_0 + pi_d_a2_a1_proc_1
      + pi_d_a2_a3_proc_2 + pi_d_a2_a3_proc_3 + pi_d_a2_a3_proc_0
      - pi_d_a3_a2_proc_2 - pi_d_a3_a2_proc_3 - pi_d_a3_a2_proc_0
      + pi_d_a2_a4_proc_2 + pi_d_a2_a4_proc_0 - pi_d_a4_a2_proc_2
      - pi_d_a4_a2_proc_0 + pi_d_a2_a5_proc_3 + pi_d_a2_a5_proc_0
      + pi_d_a2_a5_proc_1 - pi_d_a5_a2_proc_3 - pi_d_a5_a2_proc_0
      - pi_d_a5_a2_proc_1 + pi_d_a2_a6_proc_1 - pi_d_a6_a2_proc_1
      + pi_d_a2_a7_proc_2 + pi_d_a2_a7_proc_0 + pi_d_a2_a7_proc_1
      - pi_d_a7_a2_proc_2 - pi_d_a7_a2_proc_0 - pi_d_a7_a2_proc_1
      + pi_d_a2_a8_proc_3 + pi_d_a2_a8_proc_0 + pi_d_a2_a8_proc_1
      - pi_d_a8_a2_proc_3 - pi_d_a8_a2_proc_0 - pi_d_a8_a2_proc_1
      + pi_d_a2_a9_proc_2 + pi_d_a2_a9_proc_3 + pi_d_a2_a9_proc_0
      + pi_d_a2_a9_proc_1 - pi_d_a9_a2_proc_2 - pi_d_a9_a2_proc_3
      - pi_d_a9_a2_proc_0 - pi_d_a9_a2_proc_1 >= 0
 c14: 1182 pi_p_a2_a7 + 1182 pi_p_a2_a2 + 1182 pi_d_a2_a0_proc_0
      + 1182 pi_d_a2_a1_proc_0 + 1182 pi_d_a2_a3_proc_0 + 1182 pi_d_a2_a4_proc_0
      + 1182 pi_d_a2_a5_proc_0 + 1182 pi_d_a2_a7_proc_0 + 1182 pi_d_a2_a8_proc_0
      + 1182 pi_d_a2_a9_proc_0 + pi_y1_a2 + pi_y2_a2_proc_0 >= 0
 c15: 532 pi_p_a2_a7 + 532 pi_p_a2_a2 + 532 pi_d_a2_a0_proc_1
      + 532 pi_d_a2_a1_proc_1 + 532 pi_d_a2_a5_proc_1 + 532 pi_d_a2_a6_proc_1
      + 532 pi_d_a2_a7_proc_1 + 532 pi_d_a2_a8_proc_1 + 532 pi_d_a2_a9_proc_1
      + pi_y1_a2 + pi_y2_a2_proc_1 >= 0
 c16: 806 pi_p_a2_a7 + 806 pi_p_a2_a2 + 806 pi_d_a2_a0_proc_2
      + 806 pi_d_a2_a1_proc_2 + 806 pi_d_a2_a3_proc_2 + 806 pi_d_a2_a4_proc_2
      + 806 pi_d_a2_a7_proc_2 + 806 pi_d_a2_a9_proc_2 + pi_y1_a2
      + pi_y2_a2_proc_2 >= 0
 c17: 513 pi_p_a2_a7 + 513 pi_p_a2_a2 + 513 pi_d_a2_a0_proc_3
      + 513 pi_d_a2_a1_proc_3 + 513 pi_d_a2_a3_proc_3 + 513 pi_d_a2_a5_proc_3
      + 513 pi_d_a2_a8_proc_3 + 513 pi_d_a2_a9_proc_3 + pi_y1_a2
      + pi_y2_a2_proc_3 >= 0
 c18: pi_p_a3_a0 - pi_p_a4_a3 - pi_p_a6_a3 - pi_p_a9_a3 - pi_d_a0_a3_proc_2
      - pi_d_a0_a3_proc_3 - pi_d_a0_a3_proc_0 + pi_d_a3_a0_proc_2
      + pi_d_a3_a0_proc_3 + pi_d_a3_a0_proc_0 - pi_d_a1_a3_proc_2
      - pi_d_a1_a3_proc_3 - pi_d_a1_a3_proc_0 + pi_d_a3_a1_proc_2
      + pi_d_a3_a1_proc_3 + pi_d_a3_a1_proc_0 - pi_d_a2_a3_proc_2
      - pi_d_a2_a3_proc_3 - pi_d_a2_a3_proc_0 + pi_d_a3_a2_proc_2
      + pi_d_a3_a2_proc_3 + pi_d_a3_a2_proc_0 + pi_d_a3_a4_proc_2
      + pi_d_a3_a4_proc_0 - pi_d_a4_a3_proc_2 - pi_d_a4_a3_proc_0
      + pi_d_a3_a5_proc_3 + pi_d_a3_a5_proc_0 - pi_d_a5_a3_proc_3
      - pi_d_a5_a3_proc_0 + pi_d_a3_a7_proc_2 + pi_d_a3_a7_proc_0
      - pi_d_a7_a3_proc_2 - pi_d_a7_a3_proc_0 + pi_d_a3_a8_proc_3
      + pi_d_a3_a8_proc_0 - pi_d_a8_a3_proc_3 - pi_d_a8_a3_proc_0
      + pi_d_a3_a9_proc_2 + pi_d_a3_a9_proc_3 + pi_d_a3_a9_proc_0
      - pi_d_a9_a3_proc_2 - pi_d_a9_a3_proc_3 - pi_d_a9_a3_proc_0 >= 0
 c19: 1173 pi_p_a3_a0 + 1173 pi_d_a3_a0_proc_0 + 1173 pi_d_a3_a1_proc_0
      + 1173 pi_d_a3_a2_proc_0 + 1173 pi_d_a3_a4_proc_0 + 1173 pi_d_a3_a5_proc_0
      + 1173 pi_d_a3_a7_proc_0 + 1173 pi_d_a3_a8_proc_0 + 1173 pi_d_a3_a9_proc_0
      + pi_y1_a3 + pi_y2_a3_proc_0 >= 0
 c20: 363 pi_p_a3_a0 + 363 pi_d_a3_a0_proc_2 + 363 pi_d_a3_a1_proc_2
      + 363 pi_d_a3_a2_proc_2 + 363 pi_d_a3_a4_proc_2 + 363 pi_d_a3_a7_proc_2
      + 363 pi_d_a3_a9_proc_2 + pi_y1_a3 + pi_y2_a3_proc_2 >= 0
 c21: 1188 pi_p_a3_a0 + 1188 pi_d_a3_a0_proc_3 + 1188 pi_d_a3_a1_proc_3
      + 1188 pi_d_a3_a2_proc_3 + 1188 pi_d_a3_a5_proc_3 + 1188 pi_d_a3_a8_proc_3
      + 1188 pi_d_a3_a9_proc_3 + pi_y1_a3 + pi_y2_a3_proc_3 >= 0
 c22: pi_p_a4_a3 - pi_p_a5_a4 - pi_p_a7_a4 - pi_d_a0_a4_proc_2
      - pi_d_a0_a4_proc_0 + pi_d_a4_a0_proc_2 + pi_d_a4_a0_proc_0
      - pi_d_a1_a4_proc_2 - pi_d_a1_a4_proc_0 + pi_d_a4_a1_proc_2
      + pi_d_a4_a1_proc_0 - pi_d_a2_a4_proc_2 - pi_d_a2_a4_proc_0
      + pi_d_a4_a2_proc_2 + pi_d_a4_a2_proc_0 - pi_d_a3_a4_proc_2
      - pi_d_a3_a4_proc_0 + pi_d_a4_a3_proc_2 + pi_d_a4_a3_proc_0
      + pi_d_a4_a5_proc_0 - pi_d_a5_a4_proc_0 + pi_d_a4_a7_proc_2
      + pi_d_a4_a7_proc_0 - pi_d_a7_a4_proc_2 - pi_d_a7_a4_proc_0
      + pi_d_a4_a8_proc_0 - pi_d_a8_a4_proc_0 + pi_d_a4_a9_proc_2
      + pi_d_a4_a9_proc_0 - pi_d_a9_a4_proc_2 - pi_d_a9_a4_proc_0 >= 0
 c23: 1008 pi_p_a4_a3 + 1008 pi_d_a4_a0_proc_0 + 1008 pi_d_a4_a1_proc_0
      + 1008 pi_d_a4_a2_proc_0 + 1008 pi_d_a4_a3_proc_0 + 1008 pi_d_a4_a5_proc_0
      + 1008 pi_d_a4_a7_proc_0 + 1008 pi_d_a4_a8_proc_0 + 1008 pi_d_a4_a9_proc_0
      + pi_y1_a4 + pi_y2_a4_proc_0 >= 0
 c24: 1220 pi_p_a4_a3 + 1220 pi_d_a4_a0_proc_2 + 1220 pi_d_a4_a1_proc_2
      + 1220 pi_d_a4_a2_proc_2 + 1220 pi_d_a4_a3_proc_2 + 1220 pi_d_a4_a7_proc_2
      + 1220 pi_d_a4_a9_proc_2 + pi_y1_a4 + pi_y2_a4_proc_2 >= 0
 c25: pi_p_a5_a4 - pi_p_a6_a5 + pi_p_a5_a6 - pi_d_a0_a5_proc_3
      - pi_d_a0_a5_proc_0 - pi_d_a0_a5_proc_1 + pi_d_a5_a0_proc_3
      + pi_d_a5_a0_proc_0 + pi_d_a5_a0_proc_1 - pi_d_a1_a5_proc_3
      - pi_d_a1_a5_proc_0 - pi_d_a1_a5_proc_1 + pi_d_a5_a1_proc_3
      + pi_d_a5_a1_proc_0 + pi_d_a5_a1_proc_1 - pi_d_a2_a5_proc_3
      - pi_d_a2_a5_proc_0 - pi_d_a2_a5_proc_1 + pi_d_a5_a2_proc_3
      + pi_d_a5_a2_proc_0 + pi_d_a5_a2_proc_1 - pi_d_a3_a5_proc_3
      - pi_d_a3_a5_proc_0 + pi_d_a5_a3_proc_3 + pi_d_a5_a3_proc_0
      - pi_d_a4_a5_proc_0 + pi_d_a5_a4_proc_0 + pi_d_a5_a6_proc_1
      - pi_d_a6_a5_proc_1 + pi_d_a5_a7_proc_0 + pi_d_a5_a7_proc_1
      - pi_d_a7_a5_proc_0 - pi_d_a7_a5_proc_1 + pi_d_a5_a8_proc_3
      + pi_d_a5_a8_proc_0 + pi_d_a5_a8_proc_1 - pi_d_a8_a5_proc_3
      - pi_d_a8_a5_proc_0 - pi_d_a8_a5_proc_1 + pi_d_a5_a9_proc_3
      + pi_d_a5_a9_proc_0 + pi_d_a5_a9_proc_1 - pi_d_a9_a5_proc_3
      - pi_d_a9_a5_proc_0 - pi_d_a9_a5_proc_1 >= 0
 c26: 622 pi_p_a5_a4 + 622 pi_p_a5_a6 + 622 pi_d_a5_a0_proc_0
      + 622 pi_d_a5_a1_proc_0 + 622 pi_d_a5_a2_proc_0 + 622 pi_d_a5_a3_proc_0
      + 622 pi_d_a5_a4_proc_0 + 622 pi_d_a5_a7_proc_0 + 622 pi_d_a5_a8_proc_0
      + 622 pi_d_a5_a9_proc_0 + pi_y1_a5 + pi_y2_a5_proc_0 >= 0
 c27: 1139 pi_p_a5_a4 + 1139 pi_p_a5_a6 + 1139 pi_d_a5_a0_proc_1
      + 1139 pi_d_a5_a1_proc_1 + 1139 pi_d_a5_a2_proc_1 + 1139 pi_d_a5_a6_proc_1
      + 1139 pi_d_a5_a7_proc_1 + 1139 pi_d_a5_a8_proc_1 + 1139 pi_d_a5_a9_proc_1
      + pi_y1_a5 + pi_y2_a5_proc_1 >= 0
 c28: 758 pi_p_a5_a4 + 758 pi_p_a5_a6 + 758 pi_d_a5_a0_proc_3
      + 758 pi_d_a5_a1_proc_3 + 758 pi_d_a5_a2_proc_3 + 758 pi_d_a5_a3_proc_3
      + 758 pi_d_a5_a8_proc_3 + 758 pi_d_a5_a9_proc_3 + pi_y1_a5
      + pi_y2_a5_proc_3 >= 0
 c29: pi_p_a6_a3 + pi_p_a6_a7 + pi_p_a6_a5 - pi_p_a5_a6 - pi_d_a0_a6_proc_1
      + pi_d_a6_a0_proc_1 - pi_d_a1_a6_proc_1 + pi_d_a6_a1_proc_1
      - pi_d_a2_a6_proc_1 + pi_d_a6_a2_proc_1 - pi_d_a5_a6_proc_1
      + pi_d_a6_a5_proc_1 + pi_d_a6_a7_proc_1 - pi_d_a7_a6_proc_1
      + pi_d_a6_a8_proc_1 - pi_d_a8_a6_proc_1 + pi_d_a6_a9_proc_1
      - pi_d_a9_a6_proc_1 >= 0
 c30: 630 pi_p_a6_a3 + 630 pi_p_a6_a7 + 630 pi_p_a6_a5 + 630 pi_d_a6_a0_proc_1
      + 630 pi_d_a6_a1_proc_1 + 630 pi_d_a6_a2_proc_1 + 630 pi_d_a6_a5_proc_1
      + 630 pi_d_a6_a7_proc_1 + 630 pi_d_a6_a8_proc_1 + 630 pi_d_a6_a9_proc_1
      + pi_y1_a6 + pi_y2_a6_proc_1 >= 0
 c31: - pi_p_a6_a7 - pi_p_a8_a7 + pi_p_a7_a9 - pi_p_a2_a7 + pi_p_a7_a4
      + pi_p_a7_a0 - pi_d_a0_a7_proc_2 - pi_d_a0_a7_proc_0 - pi_d_a0_a7_proc_1
      + pi_d_a7_a0_proc_2 + pi_d_a7_a0_proc_0 + pi_d_a7_a0_proc_1
      - pi_d_a1_a7_proc_2 - pi_d_a1_a7_proc_0 - pi_d_a1_a7_proc_1
      + pi_d_a7_a1_proc_2 + pi_d_a7_a1_proc_0 + pi_d_a7_a1_proc_1
      - pi_d_a2_a7_proc_2 - pi_d_a2_a7_proc_0 - pi_d_a2_a7_proc_1
      + pi_d_a7_a2_proc_2 + pi_d_a7_a2_proc_0 + pi_d_a7_a2_proc_1
      - pi_d_a3_a7_proc_2 - pi_d_a3_a7_proc_0 + pi_d_a7_a3_proc_2
      + pi_d_a7_a3_proc_0 - pi_d_a4_a7_proc_2 - pi_d_a4_a7_proc_0
      + pi_d_a7_a4_proc_2 + pi_d_a7_a4_proc_0 - pi_d_a5_a7_proc_0
      - pi_d_a5_a7_proc_1 + pi_d_a7_a5_proc_0 + pi_d_a7_a5_proc_1
      - pi_d_a6_a7_proc_1 + pi_d_a7_a6_proc_1 + pi_d_a7_a8_proc_0
      + pi_d_a7_a8_proc_1 - pi_d_a8_a7_proc_0 - pi_d_a8_a7_proc_1
      + pi_d_a7_a9_proc_2 + pi_d_a7_a9_proc_0 + pi_d_a7_a9_proc_1
      - pi_d_a9_a7_proc_2 - pi_d_a9_a7_proc_0 - pi_d_a9_a7_proc_1 >= 0
 c32: 932 pi_p_a7_a9 + 932 pi_p_a7_a4 + 932 pi_p_a7_a0 + 932 pi_d_a7_a0_proc_0
      + 932 pi_d_a7_a1_proc_0 + 932 pi_d_a7_a2_proc_0 + 932 pi_d_a7_a3_proc_0
      + 932 pi_d_a7_a4_proc_0 + 932 pi_d_a7_a5_proc_0 + 932 pi_d_a7_a8_proc_0
      + 932 pi_d_a7_a9_proc_0 + pi_y1_a7 + pi_y2_a7_proc_0 >= 0
 c33: 437 pi_p_a7_a9 + 437 pi_p_a7_a4 + 437 pi_p_a7_a0 + 437 pi_d_a7_a0_proc_1
      + 437 pi_d_a7_a1_proc_1 + 437 pi_d_a7_a2_proc_1 + 437 pi_d_a7_a5_proc_1
      + 437 pi_d_a7_a6_proc_1 + 437 pi_d_a7_a8_proc_1 + 437 pi_d_a7_a9_proc_1
      + pi_y1_a7 + pi_y2_a7_proc_1 >= 0
 c34: 1150 pi_p_a7_a9 + 1150 pi_p_a7_a4 + 1150 pi_p_a7_a0
      + 1150 pi_d_a7_a0_proc_2 + 1150 pi_d_a7_a1_proc_2 + 1150 pi_d_a7_a2_proc_2
      + 1150 pi_d_a7_a3_proc_2 + 1150 pi_d_a7_a4_proc_2 + 1150 pi_d_a7_a9_proc_2
      + pi_y1_a7 + pi_y2_a7_proc_2 >= 0
 c35: pi_p_a8_a7 + pi_p_a8_a9 - pi_p_a1_a8 - pi_d_a0_a8_proc_3
      - pi_d_a0_a8_proc_0 - pi_d_a0_a8_proc_1 + pi_d_a8_a0_proc_3
      + pi_d_a8_a0_proc_0 + pi_d_a8_a0_proc_1 - pi_d_a1_a8_proc_3
      - pi_d_a1_a8_proc_0 - pi_d_a1_a8_proc_1 + pi_d_a8_a1_proc_3
      + pi_d_a8_a1_proc_0 + pi_d_a8_a1_proc_1 - pi_d_a2_a8_proc_3
      - pi_d_a2_a8_proc_0 - pi_d_a2_a8_proc_1 + pi_d_a8_a2_proc_3
      + pi_d_a8_a2_proc_0 + pi_d_a8_a2_proc_1 - pi_d_a3_a8_proc_3
      - pi_d_a3_a8_proc_0 + pi_d_a8_a3_proc_3 + pi_d_a8_a3_proc_0
      - pi_d_a4_a8_proc_0 + pi_d_a8_a4_proc_0 - pi_d_a5_a8_proc_3
      - pi_d_a5_a8_proc_0 - pi_d_a5_a8_proc_1 + pi_d_a8_a5_proc_3
      + pi_d_a8_a5_proc_0 + pi_d_a8_a5_proc_1 - pi_d_a6_a8_proc_1
      + pi_d_a8_a6_proc_1 - pi_d_a7_a8_proc_0 - pi_d_a7_a8_proc_1
      + pi_d_a8_a7_proc_0 + pi_d_a8_a7_proc_1 + pi_d_a8_a9_proc_3
      + pi_d_a8_a9_proc_0 + pi_d_a8_a9_proc_1 - pi_d_a9_a8_proc_3
      - pi_d_a9_a8_proc_0 - pi_d_a9_a8_proc_1 >= 0
 c36: 639 pi_p_a8_a7 + 639 pi_p_a8_a9 + 639 pi_d_a8_a0_proc_0
      + 639 pi_d_a8_a1_proc_0 + 639 pi_d_a8_a2_proc_0 + 639 pi_d_a8_a3_proc_0
      + 639 pi_d_a8_a4_proc_0 + 639 pi_d_a8_a5_proc_0 + 639 pi_d_a8_a7_proc_0
      + 639 pi_d_a8_a9_proc_0 + pi_y1_a8 + pi_y2_a8_proc_0 >= 0
 c37: 580 pi_p_a8_a7 + 580 pi_p_a8_a9 + 580 pi_d_a8_a0_proc_1
      + 580 pi_d_a8_a1_proc_1 + 580 pi_d_a8_a2_proc_1 + 580 pi_d_a8_a5_proc_1
      + 580 pi_d_a8_a6_proc_1 + 580 pi_d_a8_a7_proc_1 + 580 pi_d_a8_a9_proc_1
      + pi_y1_a8 + pi_y2_a8_proc_1 >= 0
 c38: 1030 pi_p_a8_a7 + 1030 pi_p_a8_a9 + 1030 pi_d_a8_a0_proc_3
      + 1030 pi_d_a8_a1_proc_3 + 1030 pi_d_a8_a2_proc_3 + 1030 pi_d_a8_a3_proc_3
      + 1030 pi_d_a8_a5_proc_3 + 1030 pi_d_a8_a9_proc_3 + pi_y1_a8
      + pi_y2_a8_proc_3 >= 0
 c39: - pi_p_a7_a9 - pi_p_a8_a9 + pi_p_a9_a3 + pi_p_a9_a2 - pi_d_a0_a9_proc_2
      - pi_d_a0_a9_proc_3 - pi_d_a0_a9_proc_0 - pi_d_a0_a9_proc_1
      + pi_d_a9_a0_proc_2 + pi_d_a9_a0_proc_3 + pi_d_a9_a0_proc_0
      + pi_d_a9_a0_proc_1 - pi_d_a1_a9_proc_2 - pi_d_a1_a9_proc_3
      - pi_d_a1_a9_proc_0 - pi_d_a1_a9_proc_1 + pi_d_a9_a1_proc_2
      + pi_d_a9_a1_proc_3 + pi_d_a9_a1_proc_0 + pi_d_a9_a1_proc_1
      - pi_d_a2_a9_proc_2 - pi_d_a2_a9_proc_3 - pi_d_a2_a9_proc_0
      - pi_d_a2_a9_proc_1 + pi_d_a9_a2_proc_2 + pi_d_a9_a2_proc_3
      + pi_d_a9_a2_proc_0 + pi_d_a9_a2_proc_1 - pi_d_a3_a9_proc_2
      - pi_d_a3_a9_proc_3 - pi_d_a3_a9_proc_0 + pi_d_a9_a3_proc_2
      + pi_d_a9_a3_proc_3 + pi_d_a9_a3_proc_0 - pi_d_a4_a9_proc_2
      - pi_d_a4_a9_proc_0 + pi_d_a9_a4_proc_2 + pi_d_a9_a4_proc_0
      - pi_d_a5_a9_proc_3 - pi_d_a5_a9_proc_0 - pi_d_a5_a9_proc_1
      + pi_d_a9_a5_proc_3 + pi_d_a9_a5_proc_0 + pi_d_a9_a5_proc_1
      - pi_d_a6_a9_proc_1 + pi_d_a9_a6_proc_1 - pi_d_a7_a9_proc_2
      - pi_d_a7_a9_proc_0 - pi_d_a7_a9_proc_1 + pi_d_a9_a7_proc_2
      + pi_d_a9_a7_proc_0 + pi_d_a9_a7_proc_1 - pi_d_a8_a9_proc_3
      - pi_d_a8_a9_proc_0 - pi_d_a8_a9_proc_1 + pi_d_a9_a8_proc_3
      + pi_d_a9_a8_proc_0 + pi_d_a9_a8_proc_1 >= 0
 c40: 1015 pi_p_a9_a3 + 1015 pi_p_a9_a2 + 1015 pi_d_a9_a0_proc_0
      + 1015 pi_d_a9_a1_proc_0 + 1015 pi_d_a9_a2_proc_0 + 1015 pi_d_a9_a3_proc_0
      + 1015 pi_d_a9_a4_proc_0 + 1015 pi_d_a9_a5_proc_0 + 1015 pi_d_a9_a7_proc_0
      + 1015 pi_d_a9_a8_proc_0 + pi_y1_a9 + pi_y2_a9_proc_0 >= 0
 c41: 879 pi_p_a9_a3 + 879 pi_p_a9_a2 + 879 pi_d_a9_a0_proc_1
      + 879 pi_d_a9_a1_proc_1 + 879 pi_d_a9_a2_proc_1 + 879 pi_d_a9_a5_proc_1
      + 879 pi_d_a9_a6_proc_1 + 879 pi_d_a9_a7_proc_1 + 879 pi_d_a9_a8_proc_1
      + pi_y1_a9 + pi_y2_a9_proc_1 >= 0
 c42: 992 pi_p_a9_a3 + 992 pi_p_a9_a2 + 992 pi_d_a9_a0_proc_2
      + 992 pi_d_a9_a1_proc_2 + 992 pi_d_a9_a2_proc_2 + 992 pi_d_a9_a3_proc_2
      + 992 pi_d_a9_a4_proc_2 + 992 pi_d_a9_a7_proc_2 + pi_y1_a9
      + pi_y2_a9_proc_2 >= 0
 c43: 358 pi_p_a9_a3 + 358 pi_p_a9_a2 + 358 pi_d_a9_a0_proc_3
      + 358 pi_d_a9_a1_proc_3 + 358 pi_d_a9_a2_proc_3 + 358 pi_d_a9_a3_proc_3
      + 358 pi_d_a9_a5_proc_3 + 358 pi_d_a9_a8_proc_3 + pi_y1_a9
      + pi_y2_a9_proc_3 >= 0

Bounds
       pi_y1_a0 Free
       pi_y1_a1 Free
       pi_y1_a2 Free
       pi_y1_a3 Free
       pi_y1_a4 Free
       pi_y1_a5 Free
       pi_y1_a6 Free
       pi_y1_a7 Free
       pi_y1_a8 Free
       pi_y1_a9 Free
End
