benchmark/results/graph__10-1000-0.10-04_17/graph__10-1000-0.10-04_17_QuintonOs_Benders_aux.txt
solution for: Quinton Bounded Benders_auxiliary_sub
objective: 0.000257732
status: OPTIMAL_SOLUTION(2)
pi_p_a0_a1=0.000
pi_p_a3_a0=0.000
pi_p_a4_a3=0.000
pi_p_a8_a7=0.000
pi_p_a7_a4=0.000
pi_p_a1_a8=0.000
pi_y1_a0=-0.235
pi_y1_a1=-0.149
pi_y1_a3=-0.094
pi_y1_a4=-0.260
pi_y1_a7=-0.113
pi_y1_a8=-0.149
